
Gurobi 12.0.2 (mac64[arm]) logging started Sat Jun 14 01:30:43 2025

Set parameter LogFile to value "/Users/yurunfeng/Documents/GitHub/LRGTS-store-location/result/gurobi/snyder/88nodes/88-0.95-5.log"
Gurobi Optimizer version 12.0.2 build v12.0.2rc0 (mac64[arm] - Darwin 24.5.0 24F74)

CPU model: Apple M4
Thread count: 10 physical cores, 10 logical processors, using up to 10 threads

Non-default parameters:
TimeLimit  1200

Optimize a model with 728288 rows, 1378696 columns and 6524758 nonzeros
Model fingerprint: 0x8002445c
Variable types: 689304 continuous, 689392 integer (689392 binary)
Coefficient statistics:
  Matrix range     [5e-02, 1e+00]
  Objective range  [8e+00, 7e+06]
  Bounds range     [1e+00, 1e+00]
  RHS range        [1e+00, 5e+00]
Found heuristic solution: objective 4.484057e+07
Presolve removed 15664 rows and 7832 columns (presolve time = 5s)...
Presolve removed 15664 rows and 7832 columns (presolve time = 11s)...
Presolve removed 15664 rows and 7832 columns
Presolve time: 11.98s
Presolved: 712624 rows, 1370864 columns, 5831529 nonzeros
Variable types: 681472 continuous, 689392 integer (689392 binary)
Deterministic concurrent LP optimizer: primal simplex, dual simplex, and barrier
Showing barrier log only...

Root barrier log...

Ordering time: 1.72s

Barrier performed 0 iterations in 15.93 seconds (40.91 work units)
Barrier solve interrupted - model solved by another algorithm

Concurrent spin time: 1.04s (can be avoided by choosing Method=3)

Solved with dual simplex

Root simplex log...

Iteration    Objective       Primal Inf.    Dual Inf.      Time
    5311    1.3988624e+06   0.000000e+00   0.000000e+00     16s

Root relaxation: objective 1.398862e+06, 5311 iterations, 3.52 seconds (5.27 work units)

    Nodes    |    Current Node    |     Objective Bounds      |     Work
 Expl Unexpl |  Obj  Depth IntInf | Incumbent    BestBd   Gap | It/Node Time

     0     0 1398862.35    0 1545 4.4841e+07 1398862.35  96.9%     -   18s
H    0     0                    1710052.3596 1398862.35  18.2%     -   32s
H    0     0                    1650515.6171 1398862.35  15.2%     -   45s
H    0     0                    1650515.6169 1398862.35  15.2%     -   54s
     0     0 1415420.10    0 3637 1650515.62 1415420.10  14.2%     -  152s
     0     0 1415420.10    0 3637 1650515.62 1415420.10  14.2%     -  152s
H    0     0                    1542526.3722 1415420.10  8.24%     -  179s
H    0     0                    1513825.7679 1415420.10  6.50%     -  182s
H    0     0                    1513572.1016 1415420.10  6.48%     -  183s
H    0     0                    1513446.8694 1415420.10  6.48%     -  190s
H    0     0                    1513364.9937 1415420.10  6.47%     -  190s
H    0     0                    1513363.4656 1415420.10  6.47%     -  190s
H    0     0                    1513363.4534 1415420.10  6.47%     -  191s
     0     0 1415881.60    0 3171 1513363.45 1415881.60  6.44%     -  194s
     0     0 1415881.60    0 1824 1513363.45 1415881.60  6.44%     -  234s
     0     0 1430965.20    0 3634 1513363.45 1430965.20  5.44%     -  299s
     0     0 1430965.20    0 3634 1513363.45 1430965.20  5.44%     -  300s
H    0     0                    1498610.2526 1430966.68  4.51%     -  328s
H    0     0                    1498276.8199 1430966.68  4.49%     -  329s
H    0     0                    1498247.0256 1430966.68  4.49%     -  329s
H    0     0                    1498246.9558 1430966.68  4.49%     -  330s
H    0     0                    1498246.9318 1430966.68  4.49%     -  331s
H    0     0                    1498246.9150 1430966.68  4.49%     -  331s
H    0     0                    1498246.7897 1430966.68  4.49%     -  331s
H    0     0                    1498246.4427 1430966.68  4.49%     -  331s
H    0     0                    1498246.4425 1430966.68  4.49%     -  332s
     0     0 1435853.58    0 3558 1498246.44 1435853.58  4.16%     -  371s
     0     0 1436227.27    0 3251 1498246.44 1436227.27  4.14%     -  383s
     0     0 1436227.37    0 3249 1498246.44 1436227.37  4.14%     -  384s
     0     0 1436585.07    0 3389 1498246.44 1436585.07  4.12%     -  391s
     0     0 1436585.98    0 3392 1498246.44 1436585.98  4.12%     -  392s
     0     0 1447427.99    0 3644 1498246.44 1447427.99  3.39%     -  407s
     0     0 1448058.22    0 4039 1498246.44 1448058.22  3.35%     -  418s
     0     0 1448270.90    0 3950 1498246.44 1448270.90  3.34%     -  420s
     0     0 1448328.19    0 4047 1498246.44 1448328.19  3.33%     -  421s
     0     0 1448331.42    0 4046 1498246.44 1448331.42  3.33%     -  422s
     0     0 1457565.29    0 4287 1498246.44 1457565.29  2.72%     -  436s
     0     0 1457565.34    0 4213 1498246.44 1457565.34  2.72%     -  436s
     0     0 1458390.53    0 4484 1498246.44 1458390.53  2.66%     -  447s
     0     0 1458391.26    0 4492 1498246.44 1458391.26  2.66%     -  448s
     0     0 1458392.17    0 4489 1498246.44 1458392.17  2.66%     -  448s
     0     0 1458450.27    0 4461 1498246.44 1458450.27  2.66%     -  449s
     0     0 1458466.26    0 4427 1498246.44 1458466.26  2.66%     -  450s
     0     0 1458466.26    0 4428 1498246.44 1458466.26  2.66%     -  451s
     0     0 1464596.22    0 4697 1498246.44 1464596.22  2.25%     -  468s
     0     0 1464596.78    0 4706 1498246.44 1464596.78  2.25%     -  469s
     0     0 1464596.79    0 4706 1498246.44 1464596.79  2.25%     -  469s
H    0     0                    1494456.9335 1464598.96  2.00%     -  479s
     0     0 1465714.32    0 4782 1494456.93 1465714.32  1.92%     -  487s
     0     0 1465907.91    0 5052 1494456.93 1465907.91  1.91%     -  490s
     0     0 1465955.56    0 4947 1494456.93 1465955.56  1.91%     -  492s
     0     0 1465956.84    0 4976 1494456.93 1465956.84  1.91%     -  493s
     0     0 1468286.05    0 5290 1494456.93 1468286.05  1.75%     -  514s
     0     0 1468286.05    0 2059 1494456.93 1468286.05  1.75%     -  567s
     0     0 1468286.05    0 2064 1494456.93 1468286.05  1.75%     -  568s
     0     0 1468286.05    0 3562 1494456.93 1468286.05  1.75%     -  648s
     0     0 1468286.05    0 3510 1494456.93 1468286.05  1.75%     -  648s
H    0     0                    1491440.8384 1468286.05  1.55%     -  670s
H    0     0                    1489420.7132 1468286.05  1.42%     -  670s
H    0     0                    1489410.0377 1468286.05  1.42%     -  671s
H    0     0                    1489356.1960 1468286.05  1.41%     -  671s
H    0     0                    1489293.5897 1468286.05  1.41%     -  672s
H    0     0                    1489293.5871 1468286.05  1.41%     -  672s
     0     0 1468286.05    0 4003 1489293.59 1468286.05  1.41%     -  683s
     0     0 1468286.05    0 4033 1489293.59 1468286.05  1.41%     -  685s
     0     0 1468286.05    0 3962 1489293.59 1468286.05  1.41%     -  685s
     0     0 1468286.05    0 4166 1489293.59 1468286.05  1.41%     -  693s
     0     0 1468286.05    0 4169 1489293.59 1468286.05  1.41%     -  693s
     0     0 1468286.05    0 4152 1489293.59 1468286.05  1.41%     -  698s
     0     0 1468286.05    0 3959 1489293.59 1468286.05  1.41%     -  700s
     0     0 1468286.05    0 3947 1489293.59 1468286.05  1.41%     -  701s
     0     0 1468880.48    0 4532 1489293.59 1468880.48  1.37%     -  744s
     0     0 1468881.37    0 4539 1489293.59 1468881.37  1.37%     -  745s
     0     0 1469213.43    0 4127 1489293.59 1469213.43  1.35%     -  753s
     0     0 1469254.52    0 4099 1489293.59 1469254.52  1.35%     -  755s
     0     0 1469254.58    0 4099 1489293.59 1469254.58  1.35%     -  755s
     0     0 1469288.07    0 4117 1489293.59 1469288.07  1.34%     -  756s
     0     0 1469289.57    0 4110 1489293.59 1469289.57  1.34%     -  757s
     0     0 1469801.08    0 4380 1489293.59 1469801.08  1.31%     -  799s
     0     0 1469801.08    0 4384 1489293.59 1469801.08  1.31%     -  800s
     0     0 1469801.08    0 4383 1489293.59 1469801.08  1.31%     -  800s
     0     0 1469836.03    0 4348 1489293.59 1469836.03  1.31%     -  807s
     0     0 1469837.82    0 4356 1489293.59 1469837.82  1.31%     -  808s
     0     0 1470155.38    0 4429 1489293.59 1470155.38  1.29%     -  850s
     0     0 1470155.46    0 4429 1489293.59 1470155.46  1.29%     -  850s
H    0     0                    1487067.1974 1470156.12  1.14%     -  857s
H    0     0                    1487067.1933 1470156.12  1.14%     -  857s
     0     0 1470270.00    0 4560 1487067.19 1470270.00  1.13%     -  860s
     0     0 1470279.27    0 4567 1487067.19 1470279.27  1.13%     -  861s
     0     0 1470279.27    0 4556 1487067.19 1470279.27  1.13%     -  861s
     0     0 1470282.07    0 4545 1487067.19 1470282.07  1.13%     -  862s
     0     0 1470282.07    0 4543 1487067.19 1470282.07  1.13%     -  862s
     0     0 1470419.76    0 4429 1487067.19 1470419.76  1.12%     -  896s
     0     0 1470421.97    0 4446 1487067.19 1470421.97  1.12%     -  897s
H    0     0                    1484603.0276 1470422.54  0.96%     -  914s
H    0     0                    1484505.6146 1470422.54  0.95%     -  914s
H    0     0                    1484465.8081 1470422.54  0.95%     -  914s
H    0     0                    1484465.7639 1470422.54  0.95%     -  915s
     0     0 1470473.26    0 4493 1484465.76 1470473.26  0.94%     -  919s
     0     0 1470505.45    0 4557 1484465.76 1470505.45  0.94%     -  920s
     0     0 1470506.20    0 4396 1484465.76 1470506.20  0.94%     -  921s
     0     0 1470506.25    0 4398 1484465.76 1470506.25  0.94%     -  921s
     0     0 1470521.61    0 4334 1484465.76 1470521.61  0.94%     -  922s
     0     0 1470521.61    0 4334 1484465.76 1470521.61  0.94%     -  923s
     0     0 1470523.31    0 4344 1484465.76 1470523.31  0.94%     -  923s
     0     0 1470697.19    0 4632 1484465.76 1470697.19  0.93%     -  952s
     0     0 1470697.19    0 2301 1484465.76 1470697.19  0.93%     - 1016s
     0     0 1470697.19    0 3076 1484465.76 1470697.19  0.93%     - 1050s
     0     0 1470697.19    0 3077 1484465.76 1470697.19  0.93%     - 1051s
     0     0 1470697.19    0 3076 1484465.76 1470697.19  0.93%     - 1051s
H    0     0                    1484187.4794 1470697.19  0.91%     - 1061s
H    0     0                    1480019.4373 1470697.19  0.63%     - 1061s
H    0     0                    1480019.3681 1470697.19  0.63%     - 1061s
     0     0 1470697.19    0 3494 1480019.37 1470697.19  0.63%     - 1072s
     0     0 1470697.19    0 3502 1480019.37 1470697.19  0.63%     - 1074s
     0     0 1470697.19    0 3528 1480019.37 1470697.19  0.63%     - 1074s
     0     0 1470697.19    0 3528 1480019.37 1470697.19  0.63%     - 1074s
     0     0 1470697.19    0 3700 1480019.37 1470697.19  0.63%     - 1082s
     0     0 1470697.19    0 3555 1480019.37 1470697.19  0.63%     - 1082s
     0     0 1470697.19    0 3555 1480019.37 1470697.19  0.63%     - 1083s
     0     0 1470697.19    0 3555 1480019.37 1470697.19  0.63%     - 1083s
     0     0 1470697.19    0 3665 1480019.37 1470697.19  0.63%     - 1086s
     0     0 1470697.19    0 3670 1480019.37 1470697.19  0.63%     - 1087s
     0     0 1470697.19    0 3670 1480019.37 1470697.19  0.63%     - 1087s
     0     0 1470697.19    0 3670 1480019.37 1470697.19  0.63%     - 1087s
     0     0 1470697.19    0 3540 1480019.37 1470697.19  0.63%     - 1090s
     0     0 1470697.19    0 3526 1480019.37 1470697.19  0.63%     - 1091s
     0     0 1470697.19    0 3525 1480019.37 1470697.19  0.63%     - 1091s
     0     0 1470697.42    0 3507 1480019.37 1470697.42  0.63%     - 1092s
     0     0 1470697.50    0 3442 1480019.37 1470697.50  0.63%     - 1093s
     0     0 1470697.51    0 3439 1480019.37 1470697.51  0.63%     - 1093s
     0     0 1470715.94    0 3565 1480019.37 1470715.94  0.63%     - 1093s
     0     0 1470804.93    0 3582 1480019.37 1470804.93  0.62%     - 1095s
     0     0 1470805.13    0 3537 1480019.37 1470805.13  0.62%     - 1096s
     0     0 1470805.14    0 3540 1480019.37 1470805.14  0.62%     - 1096s
     0     0 1470805.14    0 3541 1480019.37 1470805.14  0.62%     - 1096s
     0     0 1470823.20    0 3478 1480019.37 1470823.20  0.62%     - 1098s
     0     0 1470823.20    0 3478 1480019.37 1470823.20  0.62%     - 1098s
H    0     0                    1475238.8301 1470825.21  0.30%     - 1108s
H    0     0                    1475075.8087 1470825.21  0.29%     - 1108s
H    0     0                    1474620.3242 1470825.21  0.26%     - 1108s
H    0     0                    1474617.9406 1470825.21  0.26%     - 1109s
     0     0 1470984.62    0 3395 1474617.94 1470984.62  0.25%     - 1118s
     0     0 1471153.88    0 2486 1474617.94 1471153.88  0.23%     - 1124s
     0     0 1471251.66    0 2440 1474617.94 1471251.66  0.23%     - 1128s
     0     0 1471344.74    0 2144 1474617.94 1471344.74  0.22%     - 1132s
     0     0 1471379.21    0 2127 1474617.94 1471379.21  0.22%     - 1135s
     0     0 1471464.09    0 1985 1474617.94 1471464.09  0.21%     - 1137s
     0     0 1471468.26    0 1987 1474617.94 1471468.26  0.21%     - 1138s
     0     0 1471468.62    0 1985 1474617.94 1471468.62  0.21%     - 1138s
     0     0 1471468.90    0 1988 1474617.94 1471468.90  0.21%     - 1139s
     0     0 1471469.11    0 1989 1474617.94 1471469.11  0.21%     - 1139s
     0     0 1471469.37    0 1989 1474617.94 1471469.37  0.21%     - 1139s
     0     0 1471501.44    0 2010 1474617.94 1471501.44  0.21%     - 1140s
     0     0 1471509.11    0 2029 1474617.94 1471509.11  0.21%     - 1141s
     0     0 1471515.01    0 2023 1474617.94 1471515.01  0.21%     - 1141s
     0     0 1471543.69    0 2026 1474617.94 1471543.69  0.21%     - 1142s
     0     0 1471557.04    0 2004 1474617.94 1471557.04  0.21%     - 1142s
     0     0 1471597.50    0 1904 1474617.94 1471597.50  0.20%     - 1144s
     0     0 1471602.03    0 1921 1474617.94 1471602.03  0.20%     - 1145s
     0     0 1471606.11    0 1939 1474617.94 1471606.11  0.20%     - 1146s
     0     0 1471609.05    0 1918 1474617.94 1471609.05  0.20%     - 1146s
     0     0 1471609.70    0 1917 1474617.94 1471609.70  0.20%     - 1147s
     0     0 1471609.84    0 1917 1474617.94 1471609.84  0.20%     - 1147s
     0     0 1471610.53    0 1935 1474617.94 1471610.53  0.20%     - 1147s
     0     0 1471618.71    0 1929 1474617.94 1471618.71  0.20%     - 1148s
     0     0 1471624.04    0 1943 1474617.94 1471624.04  0.20%     - 1148s
     0     0 1471646.67    0 1953 1474617.94 1471646.67  0.20%     - 1149s
     0     0 1471646.84    0 1950 1474617.94 1471646.84  0.20%     - 1149s
     0     0 1471647.14    0 1950 1474617.94 1471647.14  0.20%     - 1149s
     0     0 1471647.73    0 1950 1474617.94 1471647.73  0.20%     - 1150s
     0     0 1471648.38    0 1953 1474617.94 1471648.38  0.20%     - 1150s
     0     0 1471648.42    0 1953 1474617.94 1471648.42  0.20%     - 1150s
     0     0 1471648.42    0 1953 1474617.94 1471648.42  0.20%     - 1150s
     0     0 1471648.45    0 1953 1474617.94 1471648.45  0.20%     - 1151s
     0     0 1471679.48    0 1941 1474617.94 1471679.48  0.20%     - 1151s
     0     0 1471697.72    0 1880 1474617.94 1471697.72  0.20%     - 1151s
     0     0 1471698.47    0 1886 1474617.94 1471698.47  0.20%     - 1152s
     0     0 1471698.47    0 1884 1474617.94 1471698.47  0.20%     - 1152s
     0     0 1471702.55    0 1882 1474617.94 1471702.55  0.20%     - 1152s
     0     0 1471702.55    0 1884 1474617.94 1471702.55  0.20%     - 1153s
     0     0 1472059.34    0 1974 1474617.94 1472059.34  0.17%     - 1155s

Cutting planes:
  Cover: 18
  Implied bound: 35
  Clique: 3
  MIR: 106
  Flow cover: 607
  Zero half: 15
  RLT: 1
  Relax-and-lift: 3
  BQP: 2

Explored 1 nodes (238978 simplex iterations) in 1200.10 seconds (2074.56 work units)
Thread count was 10 (of 10 available processors)

Solution count 10: 1.47462e+06 1.47508e+06 1.47524e+06 ... 1.48929e+06

Time limit reached
Best objective 1.474617940668e+06, best bound 1.472059335966e+06, gap 0.1735%
